Version identifier: 22.1.1.0 | 2022-11-28 | 9160aff4d
CPXPARAM_ClockType                               1
CPXPARAM_Read_DataCheck                          1
CPXPARAM_Threads                                 1
CPXPARAM_TimeLimit                               7200
CPXPARAM_MIP_Tolerances_AbsMIPGap                0
CPXPARAM_MIP_Tolerances_MIPGap                   0
CPXPARAM_MIP_Tolerances_Integrality              0
Tried aggregator 4 times.
MIP Presolve eliminated 947754 rows and 35193 columns.
MIP Presolve modified 17224 coefficients.
Aggregator did 13481 substitutions.
Reduced MIP has 39116 rows, 25105 columns, and 168337 nonzeros.
Reduced MIP has 25105 binaries, 0 generals, 0 SOSs, and 0 indicators.
Presolve time = 1.97 sec. (1255.34 ticks)
Probing time = 0.03 sec. (14.07 ticks)
Tried aggregator 1 time.
Detecting symmetries...
MIP Presolve eliminated 28 rows and 0 columns.
MIP Presolve modified 338 coefficients.
Reduced MIP has 39088 rows, 25105 columns, and 167802 nonzeros.
Reduced MIP has 25105 binaries, 0 generals, 0 SOSs, and 0 indicators.
Presolve time = 0.18 sec. (118.75 ticks)
Probing time = 0.07 sec. (35.05 ticks)
Clique table members: 101752.
MIP emphasis: balance optimality and feasibility.
MIP search method: dynamic search.
Parallel mode: none, using 1 thread.
Root relaxation solution time = 367.66 sec. (290617.26 ticks)

        Nodes                                         Cuts/
   Node  Left     Objective  IInf  Best Integer    Best Bound    ItCnt     Gap

      0     0     3893.6667  3885                   3893.6667   154645         
      0     0     3779.0476  4186                  Cuts: 3559   294713         
      0     0     3763.0000  5779                  Cuts: 1371   784755         
      0     0     3759.5833  6883                  Cuts: 1243  1325037         
      0     0     3743.6667  6736                  Cuts: 1316  1853818         

GUB cover cuts applied:  5
Clique cuts applied:  1954
Cover cuts applied:  1
Implied bound cuts applied:  87
Flow cuts applied:  1
Mixed integer rounding cuts applied:  1
Zero-half cuts applied:  640
Gomory fractional cuts applied:  1

Root node processing (before b&c):
  Real time             = 7200.05 sec. (4533488.68 ticks)
Sequential b&c:
  Real time             =    0.00 sec. (0.00 ticks)
                          ------------
Total (root+branch&cut) = 7200.05 sec. (4533488.68 ticks)
Solution is infeasible.

---------------------
@@@ MIP_time_limit_infeasible
Traceback (most recent call last):
  File "/scratch/scherif/DiverseSAT-journal_sup/DiverseSAT_Supplementary_Experiments/experiment-1/cplex/jobs/../solvers/CPLEX-BIN-SE.py", line 134, in <module>
    print(f">>> Benchmark {os.path.basename(cnf_file)} k {k} OPT {int(prob.solution.get_objective_value())}"
  File "/users/scherif/.local/lib/python3.9/site-packages/cplex/_internal/_subinterfaces.py", line 7211, in get_objective_value
    return CPX_PROC.getobjval(self._env._e, self._cplex._lp)
  File "/users/scherif/.local/lib/python3.9/site-packages/cplex/_internal/_procedural.py", line 2055, in getobjval
    check_status(env, status)
  File "/users/scherif/.local/lib/python3.9/site-packages/cplex/_internal/_procedural.py", line 249, in __call__
    raise CplexSolverError(error_string, env, status)
cplex.exceptions.errors.CplexSolverError: CPLEX Error  1217: No solution exists.
